3 
4  51 
5  13 38 58 
6  17 31 46 
7  00 16 31 46 
8  01 16 31 46 
9  00 15 30 45 
10  00 15 30 45 
11  00 15 30 45 
12  00 15 30 45 
13  01 16 31 46 
14  01 16 31 47 
15  02 17 32 47 
16  02 17 32 47 
17  02 17 32 47 
18  02 17 32 47 
19  02 17 32 47 
20  02 18 32 47 
21  02 17 32 47 
22  04 18 34 58 
23 
0 
